NAME : local_6
TYPE : ATSP
DIMENSION : 9
EDGE_WEIGHT_TYPE : EXPLICIT
EDGE_WEIGHT_FORMAT : FULL_MATRIX
EDGE_WEIGHT_SECTION
0 10000000 867 10000000 275 10000000 902 434 353 
0 0 501 515 10000000 471 550 10000000 10000000 
0 501 0 915 884 534 250 10000000 696 
0 515 915 0 10000000 508 826 10000000 10000000 
0 10000000 884 10000000 0 10000000 971 449 282 
0 471 534 508 10000000 0 355 10000000 937 
0 550 250 826 964 355 0 10000000 729 
0 10000000 10000000 10000000 449 10000000 10000000 0 689 
0 10000000 10000000 10000000 10000000 10000000 10000000 10000000 0 
EOF